
  24    0


   0  12 2 3 4 5 6 7 9 10 20 21 22 23 
   7   6 19 17 16 14 11 8 
  10   4 17 16 13 11 
   5   3 15 14 13 
   4   2 18 11 
   9   2 15 14 
   2   2 12 11 
   5   1 12 
   4   1 13 
  10   1 12 
   4   1 24
   1   1 24
   6   1 24
   9   1 24
   1   1 24
   3   1 24
  10   1 24
  10   1 24
   2   1 24
   3   1 24
   9   1 24
   9   1 24
   9   1 24
   0   0 
